c File: flat50_3_0.col
c
c SOURCE: Joseph Culberson (joe@cs.ualberta.ca)
c DESCRIPTION: Quasi-random coloring problem
c              generated with flatness = 0
c                             probability = 0.139
c                             known coloring = 3
c                             random seed = 1512
c              Creation Date:  Tue Jun  9 12:11:07 1998
c Maximum degree = 8 Minimum degree = 0
c p edge 50 115
c cnf created by edge2cnf
p cnf 150 545
-1 -2 0
-1 -3 0
-2 -3 0
1 2 3 0
-4 -5 0
-4 -6 0
-5 -6 0
4 5 6 0
-7 -8 0
-7 -9 0
-8 -9 0
7 8 9 0
-10 -11 0
-10 -12 0
-11 -12 0
10 11 12 0
-13 -14 0
-13 -15 0
-14 -15 0
13 14 15 0
-16 -17 0
-16 -18 0
-17 -18 0
16 17 18 0
-19 -20 0
-19 -21 0
-20 -21 0
19 20 21 0
-22 -23 0
-22 -24 0
-23 -24 0
22 23 24 0
-25 -26 0
-25 -27 0
-26 -27 0
25 26 27 0
-28 -29 0
-28 -30 0
-29 -30 0
28 29 30 0
-31 -32 0
-31 -33 0
-32 -33 0
31 32 33 0
-34 -35 0
-34 -36 0
-35 -36 0
34 35 36 0
-37 -38 0
-37 -39 0
-38 -39 0
37 38 39 0
-40 -41 0
-40 -42 0
-41 -42 0
40 41 42 0
-43 -44 0
-43 -45 0
-44 -45 0
43 44 45 0
-46 -47 0
-46 -48 0
-47 -48 0
46 47 48 0
-49 -50 0
-49 -51 0
-50 -51 0
49 50 51 0
-52 -53 0
-52 -54 0
-53 -54 0
52 53 54 0
-55 -56 0
-55 -57 0
-56 -57 0
55 56 57 0
-58 -59 0
-58 -60 0
-59 -60 0
58 59 60 0
-61 -62 0
-61 -63 0
-62 -63 0
61 62 63 0
-64 -65 0
-64 -66 0
-65 -66 0
64 65 66 0
-67 -68 0
-67 -69 0
-68 -69 0
67 68 69 0
-70 -71 0
-70 -72 0
-71 -72 0
70 71 72 0
-73 -74 0
-73 -75 0
-74 -75 0
73 74 75 0
-76 -77 0
-76 -78 0
-77 -78 0
76 77 78 0
-79 -80 0
-79 -81 0
-80 -81 0
79 80 81 0
-82 -83 0
-82 -84 0
-83 -84 0
82 83 84 0
-85 -86 0
-85 -87 0
-86 -87 0
85 86 87 0
-88 -89 0
-88 -90 0
-89 -90 0
88 89 90 0
-91 -92 0
-91 -93 0
-92 -93 0
91 92 93 0
-94 -95 0
-94 -96 0
-95 -96 0
94 95 96 0
-97 -98 0
-97 -99 0
-98 -99 0
97 98 99 0
-100 -101 0
-100 -102 0
-101 -102 0
100 101 102 0
-103 -104 0
-103 -105 0
-104 -105 0
103 104 105 0
-106 -107 0
-106 -108 0
-107 -108 0
106 107 108 0
-109 -110 0
-109 -111 0
-110 -111 0
109 110 111 0
-112 -113 0
-112 -114 0
-113 -114 0
112 113 114 0
-115 -116 0
-115 -117 0
-116 -117 0
115 116 117 0
-118 -119 0
-118 -120 0
-119 -120 0
118 119 120 0
-121 -122 0
-121 -123 0
-122 -123 0
121 122 123 0
-124 -125 0
-124 -126 0
-125 -126 0
124 125 126 0
-127 -128 0
-127 -129 0
-128 -129 0
127 128 129 0
-130 -131 0
-130 -132 0
-131 -132 0
130 131 132 0
-133 -134 0
-133 -135 0
-134 -135 0
133 134 135 0
-136 -137 0
-136 -138 0
-137 -138 0
136 137 138 0
-139 -140 0
-139 -141 0
-140 -141 0
139 140 141 0
-142 -143 0
-142 -144 0
-143 -144 0
142 143 144 0
-145 -146 0
-145 -147 0
-146 -147 0
145 146 147 0
-148 -149 0
-148 -150 0
-149 -150 0
148 149 150 0
-67 -1 0
-68 -2 0
-69 -3 0
-106 -1 0
-107 -2 0
-108 -3 0
-127 -1 0
-128 -2 0
-129 -3 0
-142 -1 0
-143 -2 0
-144 -3 0
-70 -4 0
-71 -5 0
-72 -6 0
-85 -4 0
-86 -5 0
-87 -6 0
-124 -4 0
-125 -5 0
-126 -6 0
-127 -4 0
-128 -5 0
-129 -6 0
-130 -4 0
-131 -5 0
-132 -6 0
-145 -4 0
-146 -5 0
-147 -6 0
-61 -7 0
-62 -8 0
-63 -9 0
-82 -7 0
-83 -8 0
-84 -9 0
-94 -7 0
-95 -8 0
-96 -9 0
-106 -7 0
-107 -8 0
-108 -9 0
-109 -7 0
-110 -8 0
-111 -9 0
-142 -7 0
-143 -8 0
-144 -9 0
-97 -10 0
-98 -11 0
-99 -12 0
-115 -10 0
-116 -11 0
-117 -12 0
-127 -10 0
-128 -11 0
-129 -12 0
-55 -13 0
-56 -14 0
-57 -15 0
-73 -13 0
-74 -14 0
-75 -15 0
-97 -13 0
-98 -14 0
-99 -15 0
-58 -16 0
-59 -17 0
-60 -18 0
-64 -16 0
-65 -17 0
-66 -18 0
-73 -16 0
-74 -17 0
-75 -18 0
-103 -16 0
-104 -17 0
-105 -18 0
-130 -16 0
-131 -17 0
-132 -18 0
-52 -19 0
-53 -20 0
-54 -21 0
-97 -19 0
-98 -20 0
-99 -21 0
-124 -19 0
-125 -20 0
-126 -21 0
-130 -19 0
-131 -20 0
-132 -21 0
-139 -19 0
-140 -20 0
-141 -21 0
-58 -22 0
-59 -23 0
-60 -24 0
-73 -22 0
-74 -23 0
-75 -24 0
-100 -22 0
-101 -23 0
-102 -24 0
-124 -22 0
-125 -23 0
-126 -24 0
-130 -22 0
-131 -23 0
-132 -24 0
-52 -25 0
-53 -26 0
-54 -27 0
-55 -25 0
-56 -26 0
-57 -27 0
-73 -25 0
-74 -26 0
-75 -27 0
-79 -25 0
-80 -26 0
-81 -27 0
-118 -25 0
-119 -26 0
-120 -27 0
-70 -28 0
-71 -29 0
-72 -30 0
-79 -28 0
-80 -29 0
-81 -30 0
-109 -28 0
-110 -29 0
-111 -30 0
-52 -31 0
-53 -32 0
-54 -33 0
-70 -31 0
-71 -32 0
-72 -33 0
-100 -31 0
-101 -32 0
-102 -33 0
-139 -31 0
-140 -32 0
-141 -33 0
-88 -34 0
-89 -35 0
-90 -36 0
-94 -34 0
-95 -35 0
-96 -36 0
-103 -34 0
-104 -35 0
-105 -36 0
-118 -34 0
-119 -35 0
-120 -36 0
-133 -34 0
-134 -35 0
-135 -36 0
-148 -34 0
-149 -35 0
-150 -36 0
-52 -37 0
-53 -38 0
-54 -39 0
-55 -37 0
-56 -38 0
-57 -39 0
-58 -37 0
-59 -38 0
-60 -39 0
-88 -37 0
-89 -38 0
-90 -39 0
-112 -37 0
-113 -38 0
-114 -39 0
-118 -37 0
-119 -38 0
-120 -39 0
-142 -37 0
-143 -38 0
-144 -39 0
-145 -37 0
-146 -38 0
-147 -39 0
-64 -40 0
-65 -41 0
-66 -42 0
-148 -40 0
-149 -41 0
-150 -42 0
-67 -43 0
-68 -44 0
-69 -45 0
-88 -43 0
-89 -44 0
-90 -45 0
-82 -46 0
-83 -47 0
-84 -48 0
-103 -46 0
-104 -47 0
-105 -48 0
-145 -46 0
-146 -47 0
-147 -48 0
-61 -49 0
-62 -50 0
-63 -51 0
-82 -49 0
-83 -50 0
-84 -51 0
-100 -49 0
-101 -50 0
-102 -51 0
-112 -49 0
-113 -50 0
-114 -51 0
-127 -49 0
-128 -50 0
-129 -51 0
-133 -49 0
-134 -50 0
-135 -51 0
-145 -49 0
-146 -50 0
-147 -51 0
-121 -52 0
-122 -53 0
-123 -54 0
-130 -52 0
-131 -53 0
-132 -54 0
-142 -52 0
-143 -53 0
-144 -54 0
-124 -55 0
-125 -56 0
-126 -57 0
-148 -55 0
-149 -56 0
-150 -57 0
-115 -58 0
-116 -59 0
-117 -60 0
-142 -58 0
-143 -59 0
-144 -60 0
-103 -61 0
-104 -62 0
-105 -63 0
-121 -61 0
-122 -62 0
-123 -63 0
-124 -64 0
-125 -65 0
-126 -66 0
-127 -64 0
-128 -65 0
-129 -66 0
-130 -64 0
-131 -65 0
-132 -66 0
-139 -64 0
-140 -65 0
-141 -66 0
-124 -67 0
-125 -68 0
-126 -69 0
-127 -67 0
-128 -68 0
-129 -69 0
-133 -67 0
-134 -68 0
-135 -69 0
-136 -70 0
-137 -71 0
-138 -72 0
-136 -73 0
-137 -74 0
-138 -75 0
-142 -73 0
-143 -74 0
-144 -75 0
-145 -73 0
-146 -74 0
-147 -75 0
-148 -73 0
-149 -74 0
-150 -75 0
-136 -76 0
-137 -77 0
-138 -78 0
-136 -79 0
-137 -80 0
-138 -81 0
-142 -79 0
-143 -80 0
-144 -81 0
-106 -82 0
-107 -83 0
-108 -84 0
-121 -82 0
-122 -83 0
-123 -84 0
-106 -85 0
-107 -86 0
-108 -87 0
-121 -85 0
-122 -86 0
-123 -87 0
-133 -85 0
-134 -86 0
-135 -87 0
-115 -88 0
-116 -89 0
-117 -90 0
-130 -88 0
-131 -89 0
-132 -90 0
-133 -88 0
-134 -89 0
-135 -90 0
-139 -88 0
-140 -89 0
-141 -90 0
-118 -94 0
-119 -95 0
-120 -96 0
-124 -94 0
-125 -95 0
-126 -96 0
-133 -94 0
-134 -95 0
-135 -96 0
-103 -100 0
-104 -101 0
-105 -102 0
-130 -100 0
-131 -101 0
-132 -102 0
